RAW/montane/fspd/r101_seed-2.out
1009.95222	12.663	23.544
