RAW/montane/fspd/r101_seed-2.sol
Route #1: 76 77 3 79 50 1 27
Route #2: 53 21 4 25 55 54 12 28
Route #3: 6 96 99 59 92 97 95 94
Route #4: 93 85 91 100 37 98
Route #5: 13 87 42 43 15 57 2 58
Route #6: 40 73 74 22 41 23 67 39 56 75 72 26
Route #7: 61 16 44 14 38 86 17 84 5
Route #8: 7 19 64 49 36 47 48 82
Route #9: 18 8 46 45 83 60 89
Route #10: 52 88 62 11 63 90 32 10 31 69
Route #11: 51 9 35 71 65 66 20 30 70
Route #12: 33 81 78 34 29 24 80 68
Cost 1009.952220